24710
14732
20819
16435
29127
17098
776
10390
7624
19354
1820
16840
16493
26219
3682
19418
27313
7807
13837
14184
4987
2323
21261
4734
10020
20172
20022
23289
16424
8521
17881
13793
18404
27981
32509
14530
19485
5985
29834
19610
5317
4895
5503
18899
25719
19142
17296
11302
4864
32274
21549
3338
15750
13396
12864
13370
2369
3866
6319
4666
19936
21081
24695
16683
29318
22877
5878
32095
8929
1393
26190
16271
32244
11819
11960
13428
27480
1610
4553
17536
18125
28674
13902
27570
2847
18907
31810
1442
392
17477
18819
14932
6665
28869
20847
1074
11901
13399
23592
20038
